100 55327

 673 93
797 749
251 915
625 435
572 259
833 435
907 724
13 10
675 590
52 614
549 638
288 243
307 715
353 92
622 200
335 878
733 739
405 14
69 249
784 215
286 271
433 248
686 63
333 459
57 733
374 607
945 673
642 82
672 952
633 839
199 806
419 823
751 933
102 545
278 201
277 617
433 743
981 738
68 522
519 69
180 372
971 921
114 585
404 539
738 269
705 369
423 896
347 667
398 788
265 455
206 631
484 249
269 706
288 428
657 443
969 650
604 937
77 65
76 825
952 293
298 444
93 22
600 302
624 503
649 57
268 492
16 928
966 106
251 765
677 410
707 656
611 261
313 160
272 161
598 71
867 186
947 665
106 882
155 815
945 686
737 111
883 290
203 310
588 250
702 516
681 536
409 357
16 354
583 829
254 790
451 308
958 914
400 953
840 327
189 355
673 506
978 942
102 877
9 103
434 393
